(set-logic QF_S)
(declare-fun var0 () String)
(declare-fun var1 () String)
(declare-fun var2 () String)
(declare-fun var3 () String)
(declare-fun var4 () String)
(declare-fun var5 () String)
(declare-fun var6 () String)
(declare-fun var7 () String)
(declare-fun var8 () String)
(declare-fun var9 () String)
(declare-fun var10 () String)
(declare-fun var11 () String)
(declare-fun var12 () String)
(declare-fun var13 () String)
(declare-fun var14 () String)
(declare-fun var15 () String)
(declare-fun var16 () String)
(declare-fun var17 () String)
(declare-fun var18 () String)
(declare-fun var19 () String)
(declare-fun var20 () String)
(declare-fun var21 () String)
(declare-fun var22 () String)
(declare-fun var23 () String)
(declare-fun var24 () String)
(declare-fun var25 () String)
(declare-fun var26 () String)
(declare-fun var27 () String)
(declare-fun var28 () String)
(declare-fun var29 () String)
(declare-fun var30 () String)
(declare-fun var31 () String)
(declare-fun var32 () String)
(declare-fun var33 () String)
(declare-fun var34 () String)
(declare-fun var35 () String)
(declare-fun var36 () String)
(declare-fun var37 () String)
(declare-fun var38 () String)
(declare-fun var39 () String)
(declare-fun var40 () String)
(declare-fun var41 () String)
(declare-fun var42 () String)
(declare-fun var43 () String)
(declare-fun var44 () String)
(declare-fun var45 () String)
(declare-fun var46 () String)
(declare-fun var47 () String)
(declare-fun var48 () String)
(declare-fun var49 () String)
(declare-fun var50 () String)
(declare-fun var51 () String)
(declare-fun var52 () String)
(declare-fun var53 () String)
(declare-fun var54 () String)
(declare-fun var55 () String)
(declare-fun var56 () String)
(declare-fun var57 () String)
(declare-fun var58 () String)
(declare-fun var59 () String)
(declare-fun var60 () String)
(assert (= var0 (str.++ var1 var2)))
(assert (= var2 (str.++ var3 var4)))
(assert (= var4 (str.++ var5 var6)))
(assert (= var6 (str.++ var7 var8)))
(assert (= var8 (str.++ var9 var10)))
(assert (= var10 (str.++ var11 var12)))
(assert (= var12 (str.++ var13 var14)))
(assert (= var14 (str.++ var15 var16)))
(assert (= var16 (str.++ var17 var18)))
(assert (= var18 (str.++ var19 var20)))
(assert (= var20 (str.++ var21 var22)))
(assert (= var22 (str.++ var23 var24)))
(assert (= var24 (str.++ var25 var26)))
(assert (= var26 (str.++ var27 var28)))
(assert (= var28 (str.++ var29 var30)))
(assert (= var30 (str.++ var31 var32)))
(assert (= var32 (str.++ var33 var34)))
(assert (= var34 (str.++ var35 var36)))
(assert (= var36 (str.++ var37 var38)))
(assert (= var38 (str.++ var39 var40)))
(assert (= var40 (str.++ var41 var42)))
(assert (= var42 (str.++ var43 var44)))
(assert (= var44 (str.++ var45 var46)))
(assert (= var46 (str.++ var47 var48)))
(assert (= var48 (str.++ var49 var50)))
(assert (= var50 (str.++ var51 var52)))
(assert (= var52 (str.++ var53 var54)))
(assert (= var54 (str.++ var55 var56)))
(assert (= var56 (str.++ var57 var58)))
(assert (= var58 (str.++ var59 var60)))
(assert (= var0 "solution"))
(assert (= "," (str.at var50 133)))
(assert (= "M" (str.at var53 287)))
(assert (= "`" (str.at var53 774)))
(assert (= "a" (str.at var6 165)))
(assert (= "'" (str.at var12 493)))
(assert (= "B" (str.at var52 33)))
(assert (= "`" (str.at var7 243)))
(assert (= "v" (str.at var39 366)))
(assert (= "K" (str.at var36 178)))
(assert (= "W" (str.at var5 447)))
(assert (= "h" (str.at var45 432)))
(assert (= "~" (str.at var40 802)))
(assert (= "P" (str.at var51 597)))
(assert (= "?" (str.at var10 379)))
(assert (= "R" (str.at var31 610)))
(assert (= "g" (str.at var52 150)))
(assert (= "p" (str.at var21 369)))
(assert (= "X" (str.at var28 531)))
(assert (= "m" (str.at var17 911)))
(assert (= "[" (str.at var42 167)))
(assert (= "s" (str.at var0 799)))
(assert (= "L" (str.at var2 26)))
(assert (= "v" (str.at var7 529)))
(assert (= "W" (str.at var58 578)))
(assert (= ")" (str.at var33 626)))
(assert (= "m" (str.at var19 75)))
(assert (= "#" (str.at var27 215)))
(assert (= "R" (str.at var54 247)))
(assert (= "%" (str.at var53 810)))
(assert (= "." (str.at var60 315)))
(assert (= "O" (str.at var52 133)))
(assert (= "P" (str.at var27 269)))
(assert (= "W" (str.at var13 620)))
(assert (= "V" (str.at var23 832)))
(assert (= "S" (str.at var30 376)))
(assert (= "c" (str.at var48 211)))
(assert (= "H" (str.at var35 480)))
(assert (= "&" (str.at var32 702)))
(assert (= "t" (str.at var15 268)))
(assert (= "c" (str.at var41 60)))
(assert (= "{" (str.at var4 402)))
(assert (= "s" (str.at var29 733)))
(assert (= "D" (str.at var53 678)))
(assert (= "g" (str.at var54 951)))
(assert (= "1" (str.at var1 730)))
(assert (= "3" (str.at var10 454)))
(assert (= "O" (str.at var20 262)))
(assert (= "O" (str.at var36 531)))
(assert (= "F" (str.at var2 971)))
(assert (= "u" (str.at var60 56)))
(assert (= "H" (str.at var42 99)))
(assert (= "@" (str.at var46 282)))
(assert (= "," (str.at var3 190)))
(assert (= "e" (str.at var52 816)))
(assert (= "3" (str.at var18 560)))
(assert (= "s" (str.at var4 431)))
(assert (= "D" (str.at var15 302)))
(assert (= "O" (str.at var19 230)))
(assert (= ";" (str.at var54 913)))
(assert (= "c" (str.at var23 294)))
(assert (= "." (str.at var31 638)))
(assert (= "+" (str.at var0 803)))
(assert (= "o" (str.at var9 211)))
(assert (= "R" (str.at var9 820)))
(assert (= ";" (str.at var39 451)))
(assert (= "5" (str.at var2 22)))
(assert (= "p" (str.at var32 957)))
(assert (= "Y" (str.at var11 121)))
(assert (= "H" (str.at var31 807)))
(assert (= "-" (str.at var39 869)))
(assert (= "*" (str.at var51 195)))
(assert (= "z" (str.at var39 145)))
(assert (= "y" (str.at var25 316)))
(assert (= "C" (str.at var14 114)))
(assert (= "m" (str.at var46 459)))
(assert (= "~" (str.at var18 409)))
(assert (= "%" (str.at var15 18)))
(assert (= "t" (str.at var7 768)))
(assert (= "*" (str.at var2 586)))
(assert (= "`" (str.at var42 143)))
(assert (= "2" (str.at var5 835)))
(assert (= "e" (str.at var19 235)))
(assert (= "$" (str.at var37 831)))
(assert (= "G" (str.at var59 221)))
(assert (= "y" (str.at var44 231)))
(assert (= "9" (str.at var9 268)))
(assert (= "7" (str.at var22 155)))
(assert (= "B" (str.at var40 296)))
(assert (= "+" (str.at var55 37)))
(assert (= "(" (str.at var34 798)))
(assert (= "`" (str.at var39 445)))
(assert (= "m" (str.at var21 445)))
(assert (= "3" (str.at var16 398)))
(assert (= "N" (str.at var45 828)))
(assert (= "P" (str.at var26 543)))
(assert (= "L" (str.at var25 962)))
(assert (= "\\" (str.at var59 593)))
(assert (= "O" (str.at var54 291)))
(assert (= "{" (str.at var30 405)))
(assert (= "~" (str.at var39 363)))
(assert (= "%" (str.at var56 440)))
(assert (= "{" (str.at var41 872)))
(assert (= "Y" (str.at var18 984)))
(assert (= "7" (str.at var19 83)))
(assert (= ";" (str.at var16 684)))
(assert (= "}" (str.at var34 245)))
(assert (= "[" (str.at var50 437)))
(assert (= ">" (str.at var3 279)))
(assert (= "r" (str.at var40 785)))
(assert (= "A" (str.at var52 201)))
(assert (= "7" (str.at var21 229)))
(assert (= "e" (str.at var47 303)))
(assert (= "Q" (str.at var7 446)))
(assert (= "p" (str.at var35 851)))
(assert (= "!" (str.at var28 826)))
(assert (= """" (str.at var49 804)))
(assert (= "/" (str.at var4 30)))
(assert (= "x" (str.at var14 153)))
(assert (= "r" (str.at var27 281)))
(assert (= "e" (str.at var44 431)))
(assert (= "e" (str.at var43 24)))
(assert (= "B" (str.at var21 898)))
(assert (= "'" (str.at var11 843)))
(assert (= "u" (str.at var37 911)))
(assert (= "]" (str.at var38 355)))
(assert (= "d" (str.at var44 601)))
(assert (= "!" (str.at var4 467)))
(assert (= "^" (str.at var13 578)))
(assert (= "?" (str.at var31 119)))
(assert (= "g" (str.at var52 856)))
(assert (= "~" (str.at var51 662)))
(assert (= "2" (str.at var28 323)))
(assert (= "1" (str.at var27 589)))
(assert (= "Q" (str.at var30 835)))
(assert (= ";" (str.at var20 685)))
(assert (= "|" (str.at var19 894)))
(assert (= "p" (str.at var55 489)))
(assert (= "2" (str.at var39 371)))
(assert (= "m" (str.at var5 249)))
(assert (= "," (str.at var14 29)))
(assert (= "&" (str.at var45 852)))
(assert (= "U" (str.at var31 602)))
(assert (= "P" (str.at var24 841)))
(assert (= "t" (str.at var42 120)))
(assert (= "W" (str.at var16 771)))
(assert (= """" (str.at var14 498)))
(assert (= "K" (str.at var55 716)))
(assert (= "G" (str.at var21 383)))
(assert (= "M" (str.at var25 68)))
(assert (= "_" (str.at var53 575)))
(assert (= "~" (str.at var19 396)))
(assert (= "C" (str.at var17 260)))
(assert (= "s" (str.at var24 790)))
(assert (= "e" (str.at var10 59)))
(assert (= "'" (str.at var1 603)))
(assert (= "n" (str.at var29 659)))
(assert (= "H" (str.at var20 622)))
(assert (= "e" (str.at var32 849)))
(assert (= "Z" (str.at var19 655)))
(assert (= "g" (str.at var29 876)))
(assert (= "Q" (str.at var25 722)))
(assert (= "9" (str.at var47 840)))
(assert (= "\\" (str.at var11 345)))
(assert (= "Z" (str.at var24 162)))
(assert (= "N" (str.at var51 156)))
(assert (= "7" (str.at var56 872)))
(assert (= "s" (str.at var35 67)))
(assert (= "k" (str.at var39 140)))
(assert (= "B" (str.at var10 634)))
(assert (= "&" (str.at var13 18)))
(assert (= "p" (str.at var5 806)))
(assert (= ":" (str.at var14 243)))
(assert (= "E" (str.at var55 598)))
(assert (= "9" (str.at var56 591)))
(assert (= "?" (str.at var13 238)))
(assert (= "Q" (str.at var10 96)))
(assert (= "u" (str.at var2 745)))
(assert (= "t" (str.at var21 248)))
(assert (= "}" (str.at var47 428)))
(assert (= "$" (str.at var48 875)))
(assert (= "," (str.at var25 805)))
(assert (= "C" (str.at var53 420)))
(assert (= "/" (str.at var25 2)))
(assert (= "Z" (str.at var39 499)))
(assert (= "l" (str.at var28 516)))
(assert (= "<" (str.at var51 352)))
(assert (= "[" (str.at var33 182)))
(assert (= "Q" (str.at var30 224)))
(assert (= "_" (str.at var29 266)))
(assert (= "g" (str.at var0 383)))
(assert (= "F" (str.at var48 769)))
(assert (= "U" (str.at var20 264)))
(assert (= "f" (str.at var8 148)))
(assert (= "{" (str.at var24 853)))
(assert (= "~" (str.at var6 328)))
(assert (= "y" (str.at var13 783)))
(assert (= "n" (str.at var16 275)))
(assert (= "P" (str.at var34 894)))
(assert (= "7" (str.at var39 114)))
(assert (= "A" (str.at var8 220)))
(assert (= "C" (str.at var20 954)))
(assert (= "F" (str.at var59 618)))
(assert (= "j" (str.at var4 165)))
(assert (= "@" (str.at var56 398)))
(assert (= "#" (str.at var27 47)))
(assert (= "_" (str.at var54 19)))
(assert (= "D" (str.at var48 38)))
(assert (= "$" (str.at var46 526)))
(assert (= "A" (str.at var41 779)))
(assert (= "a" (str.at var10 386)))
(assert (= "F" (str.at var45 224)))
(assert (= "2" (str.at var50 187)))
(assert (= ">" (str.at var53 104)))
(assert (= "W" (str.at var52 803)))
(assert (= "B" (str.at var43 570)))
(assert (= "-" (str.at var32 426)))
(assert (= "J" (str.at var25 650)))
(assert (= "}" (str.at var36 481)))
(assert (= "3" (str.at var0 351)))
(assert (= "t" (str.at var24 654)))
(assert (= "e" (str.at var42 365)))
(assert (= "F" (str.at var60 258)))
(assert (= "y" (str.at var18 759)))
(assert (= "B" (str.at var11 693)))
(assert (= "/" (str.at var20 734)))
(assert (= "Y" (str.at var35 93)))
(assert (= "{" (str.at var15 369)))
(assert (= "w" (str.at var48 568)))
(assert (= "-" (str.at var46 321)))
(assert (= "p" (str.at var0 929)))
(assert (= "5" (str.at var25 336)))
(assert (= "W" (str.at var50 936)))
(assert (= "q" (str.at var31 168)))
(assert (= "D" (str.at var43 690)))
(assert (= "`" (str.at var5 671)))
(assert (= "]" (str.at var13 646)))
(assert (= "&" (str.at var60 785)))
(assert (= "2" (str.at var14 19)))
(assert (= "P" (str.at var11 603)))
(assert (= "*" (str.at var5 219)))
(assert (= "t" (str.at var6 239)))
(assert (= "r" (str.at var14 414)))
(assert (= "2" (str.at var50 643)))
(assert (= "9" (str.at var28 867)))
(assert (= "j" (str.at var52 89)))
(assert (= "N" (str.at var1 830)))
(assert (= "z" (str.at var6 498)))
(assert (= "{" (str.at var56 165)))
(assert (= "D" (str.at var2 855)))
(assert (= "Q" (str.at var6 426)))
(assert (= "H" (str.at var33 731)))
(assert (= "y" (str.at var8 130)))
(assert (= "Z" (str.at var2 686)))
(assert (= "_" (str.at var22 90)))
(assert (= "e" (str.at var56 608)))
(assert (= "#" (str.at var17 59)))
(assert (= "v" (str.at var22 352)))
(assert (= "}" (str.at var19 793)))
(assert (= "J" (str.at var26 503)))
(assert (= "*" (str.at var16 264)))
(assert (= "l" (str.at var47 495)))
(assert (= "&" (str.at var45 53)))
(assert (= "." (str.at var28 637)))
(assert (= "q" (str.at var56 27)))
(assert (= "b" (str.at var18 888)))
(assert (= "J" (str.at var25 686)))
(assert (= "'" (str.at var23 80)))
(assert (= "\\" (str.at var43 936)))
(assert (= "6" (str.at var20 19)))
(assert (= "I" (str.at var24 669)))
(assert (= "q" (str.at var29 705)))
(assert (= "C" (str.at var15 851)))
(assert (= "l" (str.at var30 992)))
(assert (= "'" (str.at var9 172)))
(assert (= "j" (str.at var47 817)))
(assert (= "N" (str.at var10 830)))
(assert (= "P" (str.at var38 188)))
(assert (= "q" (str.at var7 875)))
(assert (= "6" (str.at var21 489)))
(assert (= ":" (str.at var29 291)))
(assert (= "G" (str.at var20 584)))
(check-sat)
(get-model)